c This is an instance of the exact track of PACE 2020 Challenge, see https://pacechallenge.org/2020/ 
c TYPE: biology 
c ORIGIN: http://networkrepository.com/ 
c DESCRIPTION: ENZYMES is a dataset of protein tertiary structures obtained from (Borgwardt et al., 2005)  consisting of 600 enzymes from the BRENDA enzyme database (Schomburg et al., 2004). Refernces: K. M. Borgwardt, C. S. Ong, S. Schoenauer, S. V. N. Vishwanathan, A. J. Smola, and H. P. Kriegel. Protein function prediction via graph kernels. Bioinformatics, 21(Suppl 1):i47–i56, Jun 2005. I. Schomburg, A. Chang, C. Ebeling, M. Gremse, C. Heldt, G. Huhn, and D. Schomburg. Brenda, the enzyme database: updates and major new developments. Nucleic Acids Research, 32D:431–433, 2011 
p tdp 26 51
1 2
1 4
1 5
1 6
2 3
2 4
3 4
3 5
4 5
5 6
6 8
6 7
6 10
7 8
7 9
7 10
8 9
8 10
9 11
9 12
11 12
11 13
11 14
12 13
12 14
13 26
13 14
14 26
14 18
15 16
15 17
15 19
15 20
16 17
16 18
17 19
17 20
18 26
18 20
19 21
19 22
20 26
21 22
21 23
21 24
22 23
22 24
22 25
23 24
23 25
24 25
